
Gurobi 10.0.1 (mac64[arm]) logging started Sun Mar 31 05:35:16 2024

Set parameter LogFile to value "/Users/deniserings/Documents/zib/s-bahn-data/scripts/DeniseMA/processed/BGAS_BKW/RENS/BGAS_BKW_subMBP_random4_0.6_202403301837.log"
Gurobi Optimizer version 10.0.1 build v10.0.1rc0 (mac64[arm])

CPU model: Apple M2
Thread count: 8 physical cores, 8 logical processors, using up to 8 threads

Optimize a model with 1969 rows, 1012 columns and 6868 nonzeros
Model fingerprint: 0xeee376bb
Variable types: 411 continuous, 601 integer (170 binary)
Coefficient statistics:
  Matrix range     [1e+00, 2e+02]
  Objective range  [1e+00, 4e+02]
  Bounds range     [1e+00, 2e+02]
  RHS range        [1e+00, 5e+02]
Presolve removed 1466 rows and 699 columns
Presolve time: 0.04s
Presolved: 503 rows, 313 columns, 1930 nonzeros
Variable types: 112 continuous, 201 integer (201 binary)
Found heuristic solution: objective 6263.0000000
Found heuristic solution: objective 5063.0000000

Root relaxation: objective 4.540000e+03, 182 iterations, 0.00 seconds (0.00 work units)

    Nodes    |    Current Node    |     Objective Bounds      |     Work
 Expl Unexpl |  Obj  Depth IntInf | Incumbent    BestBd   Gap | It/Node Time

     0     0 4540.00000    0   12 5063.00000 4540.00000  10.3%     -    0s
     0     0 4540.00000    0   39 5063.00000 4540.00000  10.3%     -    0s
H    0     0                    5045.0000000 4540.00000  10.0%     -    0s
     0     0 4540.00000    0   33 5045.00000 4540.00000  10.0%     -    0s
H    0     0                    5044.0000000 4540.00000  10.0%     -    0s
H    0     0                    5002.0000000 4540.00000  9.24%     -    0s
H    0     0                    4952.0000000 4540.00000  8.32%     -    0s
     0     0 4540.00000    0   26 4952.00000 4540.00000  8.32%     -    0s
     0     0 4540.00000    0   34 4952.00000 4540.00000  8.32%     -    0s
     0     0 4540.00000    0   15 4952.00000 4540.00000  8.32%     -    0s
     0     0 4540.00000    0   12 4952.00000 4540.00000  8.32%     -    0s
     0     2 4540.00000    0   11 4952.00000 4540.00000  8.32%     -    0s
H  175   165                    4945.0000000 4542.52105  8.14%  11.0    0s
H  400   278                    4936.0000000 4560.00000  7.62%  10.5    0s
H  469   308                    4920.0000000 4560.00000  7.32%  10.4    0s
* 1361   487              15    4915.0000000 4635.00000  5.70%  10.4    0s
* 2318   604              15    4914.0000000 4659.00000  5.19%  10.8    0s

Cutting planes:
  Learned: 34
  Gomory: 16
  Cover: 73
  Implied bound: 26
  Clique: 2
  MIR: 48
  Flow cover: 9
  Inf proof: 5
  Mod-K: 1
  RLT: 9
  Relax-and-lift: 6

Explored 6989 nodes (80711 simplex iterations) in 0.77 seconds (0.54 work units)
Thread count was 8 (of 8 available processors)

Solution count 10: 4914 4915 4920 ... 5063

Optimal solution found (tolerance 1.00e-04)
Best objective 4.914000000000e+03, best bound 4.914000000000e+03, gap 0.0000%

User-callback calls 14936, time in user-callback 0.02 sec

Statistics for modelBGAS_BKW:
  Linear constraint matrix    : 1969 Constrs, 1012 Vars, 6868 NZs
  Variable types              : 411 Continuous,
601 Integer (170 Binary)
  Matrix coefficient range    : [ 1, 200 ]
  Objective coefficient range : [ 1, 388 ]
  Variable bound range        : [ 1, 199 ]
  RHS coefficient range       : [ 1, 549 ]
